

 #variable b index 0 15 30 45 60 75 90 105 120

 variable a file phiyvalues.txt
 label loopita

 variable b file phizvalues.txt
 label loopitb

 variable c file kevalues.txt
 label loopitc

variable d file ImpParvalues.txt
label loopitd


 clear
 units real
 atom_style        full
 boundary m m m


 #variable a loop 9
 #variable b index 0 15 30 45 60 75 90 105 120
 #log log.$b

 read_data D:\EMIBF4_equilibration\data_files\eq_SYST_$a_$b_KE$c_Imp$d.dat

 pair_style	   reax/c NULL
 pair_coeff	* * ffield_IL.txt N C H B F


fix  1 all qeq/reax 1 0.0 8.0 1e-6 reax/c


fix EFIX all nve

#region myregion block INF 10 INF INF INF INF
#fix wall all wall/region myregion lj126 1.0 1.0 2.5




 #compute Tliq all temp/com


 #compute cc1 all chunk/atom molecule
 #compute myChunk all vcm/chunk cc1

 compute Tliq all temp/com
 compute bde all pe/atom

 thermo_style custom step c_Tliq etotal
 thermo 100
 thermo_modify lost ignore
 thermo_modify lost/bond ignore
 timestep 0.1

#dump myDump all atom 500 dump_$n_$m.prod
#dump myDump all custom 100 dump_$n_$m_KE${ke}.prod id type xs ys zs q c_bde
dump myDump all custom 100 dump\dump_$a_$b_KE$c_Imp$d.prod id type x y z
dump_modify myDump units yes
log log\log_$a_$b_KE$c_Imp$d.lammps



#run 500000


#fix kick all efield 0.001 0.0 0.0
run 10000

unfix EFIX
#unfix kick
undump myDump
#undump VDump
#write_data prod.dat

#clear
#next a

next d
jump SELF loopitd

next c
jump SELF loopitc

next b
jump SELF loopitb

next a
jump SELF loopita
